c tw = 7
p tw 24 36
1 2
1 13
1 24
2 3
2 9
11 12
11 18
12 13
13 14
14 15
14 21
15 16
16 17
17 18
17 24
18 19
19 20
20 21
3 20
3 4
21 22
22 23
23 24
4 16
4 5
5 12
5 6
6 23
6 7
7 19
7 8
8 15
8 9
9 10
10 11
10 22
